param n := 2;

param m := 2;

param K := 20;

param a :=
1 	 0.883306
2 	 0.623672
;
 param A :=
[1, *, *]:  1	2	:=
1	0.501885	-0.460144	
2	-0.302203	0.791772	

[2, *, *]:  1	2	:=
1	-0.143818	0.326883	
2	0.929680	0.243391	
;